<?xml version = "1.0" encoding="UTF-8" standalone="yes"?>
<CPLEXSolution version="1.2">
 <header
   problemName="cluster_small_cut_n3"
   objectiveValue="75.881188118811892"
   solutionTypeValue="1"
   solutionTypeString="basic"
   solutionStatusValue="1"
   solutionStatusString="optimal"
   solutionMethodString="primal"
   primalFeasible="1"
   dualFeasible="1"
   simplexIterations="0"
   writeLevel="1"/>
 <quality
   epRHS="9.9999999999999995e-07"
   epOpt="9.9999999999999995e-07"
   maxPrimalInfeas="0"
   maxDualInfeas="0"
   maxPrimalResidual="7.1054273576010019e-14"
   maxDualResidual="3.5527136788005009e-15"
   maxX="1.1018387553040299"
   maxPi="1.9257425742574257"
   maxSlack="928.97595473833098"
   maxRedCost="147.36633663366334"
   kappa="113.62995612517666"/>
 <linearConstraints>
  <constraint name="c0" index="0" status="BS" slack="0.79207920792079278" dual="-0"/>
  <constraint name="c1" index="1" status="BS" slack="426.68599717114563" dual="-0"/>
  <constraint name="c2" index="2" status="BS" slack="818.48514851485152" dual="-0"/>
  <constraint name="c3" index="3" status="BS" slack="322.54455445544551" dual="-0"/>
  <constraint name="c4" index="4" status="BS" slack="928.97595473833098" dual="-0"/>
  <constraint name="c5" index="5" status="LL" slack="0" dual="-0"/>
  <constraint name="c6" index="6" status="BS" slack="72.937765205091878" dual="-0"/>
  <constraint name="c7" index="7" status="BS" slack="386.51626591230547" dual="-0"/>
  <constraint name="c8" index="8" status="BS" slack="118.4413012729844" dual="-0"/>
  <constraint name="c9" index="9" status="BS" slack="587.49929278642151" dual="-0"/>
  <constraint name="c10" index="10" status="BS" slack="680.27864214992928" dual="-0"/>
  <constraint name="c11" index="11" status="BS" slack="553.59830268741155" dual="-0"/>
  <constraint name="c12" index="12" status="BS" slack="704.53748231966051" dual="-0"/>
  <constraint name="c13" index="13" status="BS" slack="323.97312588401695" dual="-0"/>
  <constraint name="c14" index="14" status="BS" slack="675.80056577086282" dual="-0"/>
  <constraint name="cut_1" index="15" status="LL" slack="0" dual="1.9257425742574257"/>
  <constraint name="cut_2" index="16" status="LL" slack="0" dual="0.29702970297029707"/>
  <constraint name="cut_3" index="17" status="BS" slack="0.40876944837338414" dual="-0"/>
 </linearConstraints>
 <variables>
  <variable name="x0" index="0" status="LL" value="0" reducedCost="-85.297029702970278"/>
  <variable name="x1" index="1" status="LL" value="0" reducedCost="-45.742574257425744"/>
  <variable name="x2" index="2" status="LL" value="0" reducedCost="-127.67821782178217"/>
  <variable name="x3" index="3" status="BS" value="0.74681753889674629" reducedCost="0"/>
  <variable name="x4" index="4" status="LL" value="0" reducedCost="-118.40594059405943"/>
  <variable name="x5" index="5" status="LL" value="0" reducedCost="-15.306930693069306"/>
  <variable name="x6" index="6" status="LL" value="0" reducedCost="-113.3316831683168"/>
  <variable name="x7" index="7" status="LL" value="0" reducedCost="-147.36633663366334"/>
  <variable name="x8" index="8" status="BS" value="0.792079207920793" reducedCost="0"/>
  <variable name="x9" index="9" status="LL" value="0" reducedCost="-21.400990099009903"/>
  <variable name="x10" index="10" status="LL" value="0" reducedCost="-111.73267326732673"/>
  <variable name="x11" index="11" status="LL" value="0" reducedCost="-111.55445544554456"/>
  <variable name="s0" index="12" status="LL" value="0" reducedCost="0"/>
  <variable name="s1" index="13" status="LL" value="0" reducedCost="0"/>
  <variable name="s2" index="14" status="LL" value="0" reducedCost="0"/>
  <variable name="s3" index="15" status="LL" value="0" reducedCost="0"/>
  <variable name="s4" index="16" status="LL" value="0" reducedCost="0"/>
  <variable name="s5" index="17" status="BS" value="1.1018387553040299" reducedCost="0"/>
  <variable name="s6" index="18" status="LL" value="0" reducedCost="0"/>
  <variable name="s7" index="19" status="LL" value="0" reducedCost="0"/>
  <variable name="s8" index="20" status="LL" value="0" reducedCost="0"/>
  <variable name="s9" index="21" status="LL" value="0" reducedCost="0"/>
  <variable name="s10" index="22" status="LL" value="0" reducedCost="0"/>
  <variable name="s11" index="23" status="LL" value="0" reducedCost="0"/>
  <variable name="s12" index="24" status="LL" value="0" reducedCost="0"/>
  <variable name="s13" index="25" status="LL" value="0" reducedCost="0"/>
  <variable name="s14" index="26" status="LL" value="0" reducedCost="0"/>
 </variables>
 <objectiveValues>
  <objective index="0" name="" value="75.881188118811892"/>
 </objectiveValues>
</CPLEXSolution>
